33D32945 STP File, STP Format Version 1.0

SECTION Comment
Name "i640-232-PCST"
Creator "Indaco Biazzo" 
Remark "derived from Incidence graph by Cees Duin"
END

SECTION Graph
Nodes 640
Edges 1280
E 1 49 296.000000
E 1 273 207.000000
E 2 234 203.000000
E 3 40 304.000000
E 3 274 204.000000
E 3 289 203.000000
E 3 403 199.000000
E 3 580 192.000000
E 4 44 296.000000
E 4 93 201.000000
E 4 632 205.000000
E 5 32 304.000000
E 5 56 194.000000
E 5 95 195.000000
E 5 111 211.000000
E 5 193 199.000000
E 6 21 299.000000
E 6 48 306.000000
E 6 241 201.000000
E 6 300 193.000000
E 6 357 201.000000
E 6 449 197.000000
E 6 493 203.000000
E 7 49 299.000000
E 7 431 204.000000
E 7 474 201.000000
E 8 56 205.000000
E 8 392 203.000000
E 8 423 206.000000
E 8 572 198.000000
E 8 588 197.000000
E 9 38 297.000000
E 9 149 199.000000
E 9 218 193.000000
E 9 243 195.000000
E 9 404 194.000000
E 9 437 194.000000
E 9 619 200.000000
E 10 384 192.000000
E 10 456 201.000000
E 10 503 198.000000
E 11 21 303.000000
E 11 300 192.000000
E 11 558 194.000000
E 12 71 197.000000
E 12 90 196.000000
E 12 130 201.000000
E 12 274 194.000000
E 12 334 205.000000
E 12 509 192.000000
E 13 137 199.000000
E 13 179 197.000000
E 13 275 197.000000
E 13 375 207.000000
E 13 453 199.000000
E 13 454 205.000000
E 13 489 198.000000
E 13 520 195.000000
E 14 57 201.000000
E 14 112 198.000000
E 14 225 192.000000
E 14 588 206.000000
E 15 235 209.000000
E 15 414 199.000000
E 15 460 200.000000
E 16 148 202.000000
E 16 197 209.000000
E 16 404 210.000000
E 16 491 199.000000
E 17 131 192.000000
E 17 202 207.000000
E 17 274 202.000000
E 17 461 201.000000
E 17 523 198.000000
E 18 317 205.000000
E 18 378 205.000000
E 18 408 201.000000
E 19 98 192.000000
E 19 333 205.000000
E 19 438 200.000000
E 19 523 207.000000
E 19 535 207.000000
E 20 321 200.000000
E 20 545 203.000000
E 20 624 196.000000
E 21 133 195.000000
E 21 435 197.000000
E 21 512 204.000000
E 22 120 208.000000
E 22 295 205.000000
E 23 84 200.000000
E 23 112 198.000000
E 23 187 205.000000
E 23 193 205.000000
E 23 319 193.000000
E 23 528 196.000000
E 23 629 207.000000
E 24 106 207.000000
E 24 213 195.000000
E 24 221 199.000000
E 24 419 205.000000
E 24 484 195.000000
E 25 147 198.000000
E 25 286 205.000000
E 25 475 198.000000
E 25 477 190.000000
E 25 481 195.000000
E 26 126 201.000000
E 26 241 189.000000
E 26 274 196.000000
E 26 510 199.000000
E 27 165 193.000000
E 27 184 199.000000
E 27 304 205.000000
E 27 626 198.000000
E 28 76 196.000000
E 28 356 191.000000
E 29 187 207.000000
E 29 191 199.000000
E 29 199 202.000000
E 29 290 203.000000
E 29 351 209.000000
E 29 468 193.000000
E 30 545 199.000000
E 30 561 199.000000
E 30 579 202.000000
E 31 170 193.000000
E 31 252 200.000000
E 31 340 207.000000
E 31 636 200.000000
E 32 281 206.000000
E 32 535 204.000000
E 32 569 197.000000
E 32 574 192.000000
E 33 419 204.000000
E 33 494 201.000000
E 33 561 199.000000
E 33 624 201.000000
E 34 97 202.000000
E 34 125 211.000000
E 34 250 194.000000
E 34 355 195.000000
E 34 443 203.000000
E 34 486 199.000000
E 35 136 189.000000
E 35 320 195.000000
E 36 230 202.000000
E 37 462 201.000000
E 38 190 201.000000
E 38 429 205.000000
E 38 524 209.000000
E 39 81 204.000000
E 39 200 190.000000
E 39 310 197.000000
E 39 438 201.000000
E 39 512 196.000000
E 40 57 200.000000
E 40 420 207.000000
E 40 459 207.000000
E 41 45 299.000000
E 41 145 195.000000
E 41 508 191.000000
E 42 225 203.000000
E 42 334 201.000000
E 42 383 187.000000
E 42 432 196.000000
E 42 520 208.000000
E 43 109 196.000000
E 43 221 192.000000
E 43 277 190.000000
E 44 263 210.000000
E 44 296 201.000000
E 44 409 204.000000
E 44 446 198.000000
E 44 609 203.000000
E 44 628 207.000000
E 45 356 195.000000
E 45 466 202.000000
E 46 86 201.000000
E 46 223 201.000000
E 47 417 202.000000
E 47 432 193.000000
E 47 501 190.000000
E 48 260 185.000000
E 48 301 200.000000
E 48 452 202.000000
E 49 274 202.000000
E 49 288 191.000000
E 49 339 200.000000
E 49 525 195.000000
E 50 67 204.000000
E 50 178 210.000000
E 50 338 200.000000
E 51 149 99.000000
E 51 418 103.000000
E 51 420 97.000000
E 51 492 98.000000
E 51 624 105.000000
E 52 291 100.000000
E 52 336 92.000000
E 52 494 97.000000
E 52 542 100.000000
E 52 562 93.000000
E 53 71 101.000000
E 53 120 104.000000
E 53 435 95.000000
E 53 573 102.000000
E 53 609 102.000000
E 53 612 102.000000
E 54 141 103.000000
E 54 506 99.000000
E 55 72 102.000000
E 55 339 97.000000
E 55 344 93.000000
E 55 412 102.000000
E 55 415 108.000000
E 55 524 91.000000
E 56 60 101.000000
E 56 140 103.000000
E 56 150 103.000000
E 56 247 100.000000
E 56 503 101.000000
E 57 348 109.000000
E 57 356 100.000000
E 58 294 96.000000
E 58 480 102.000000
E 58 563 100.000000
E 59 221 110.000000
E 60 138 111.000000
E 60 158 96.000000
E 60 192 97.000000
E 60 280 111.000000
E 60 487 102.000000
E 61 65 103.000000
E 61 303 103.000000
E 61 315 104.000000
E 61 334 97.000000
E 61 508 97.000000
E 62 323 107.000000
E 62 387 104.000000
E 62 608 101.000000
E 63 369 98.000000
E 63 390 94.000000
E 64 88 103.000000
E 64 110 99.000000
E 64 127 94.000000
E 64 206 107.000000
E 64 357 101.000000
E 64 422 99.000000
E 64 492 95.000000
E 64 565 92.000000
E 65 232 97.000000
E 65 456 93.000000
E 66 126 97.000000
E 66 230 102.000000
E 66 245 99.000000
E 66 247 93.000000
E 66 330 102.000000
E 66 343 96.000000
E 66 508 92.000000
E 66 528 95.000000
E 67 454 103.000000
E 67 621 96.000000
E 68 86 92.000000
E 68 143 94.000000
E 68 171 109.000000
E 68 399 103.000000
E 68 493 101.000000
E 68 512 100.000000
E 69 161 102.000000
E 69 291 113.000000
E 69 431 103.000000
E 69 633 105.000000
E 70 206 102.000000
E 70 372 104.000000
E 71 81 98.000000
E 71 164 102.000000
E 71 271 105.000000
E 71 381 98.000000
E 71 571 102.000000
E 72 78 102.000000
E 72 129 104.000000
E 72 361 99.000000
E 73 291 105.000000
E 73 339 98.000000
E 73 381 104.000000
E 73 591 99.000000
E 74 181 102.000000
E 74 292 99.000000
E 74 341 102.000000
E 74 402 108.000000
E 75 90 109.000000
E 75 498 93.000000
E 76 172 104.000000
E 76 620 93.000000
E 77 115 100.000000
E 77 129 103.000000
E 77 219 107.000000
E 77 465 96.000000
E 77 466 94.000000
E 78 136 105.000000
E 78 194 98.000000
E 79 258 101.000000
E 79 536 93.000000
E 80 268 104.000000
E 80 424 99.000000
E 81 142 96.000000
E 81 147 98.000000
E 81 286 104.000000
E 81 334 96.000000
E 81 406 101.000000
E 81 540 92.000000
E 81 577 96.000000
E 82 127 99.000000
E 82 367 101.000000
E 82 576 97.000000
E 83 89 101.000000
E 83 201 100.000000
E 83 308 94.000000
E 83 376 98.000000
E 83 552 104.000000
E 83 634 104.000000
E 84 211 103.000000
E 84 371 92.000000
E 84 553 97.000000
E 84 621 105.000000
E 85 214 103.000000
E 85 219 100.000000
E 85 287 97.000000
E 85 398 104.000000
E 85 519 103.000000
E 86 177 106.000000
E 86 208 96.000000
E 86 547 86.000000
E 87 412 104.000000
E 89 259 93.000000
E 89 352 100.000000
E 90 183 109.000000
E 90 408 93.000000
E 91 425 104.000000
E 91 500 106.000000
E 92 233 97.000000
E 92 311 107.000000
E 93 114 97.000000
E 93 195 107.000000
E 93 205 101.000000
E 93 207 99.000000
E 93 456 99.000000
E 93 505 97.000000
E 94 100 98.000000
E 94 202 99.000000
E 94 468 102.000000
E 94 523 108.000000
E 94 631 98.000000
E 95 148 98.000000
E 95 176 98.000000
E 96 146 106.000000
E 96 266 90.000000
E 97 266 99.000000
E 97 347 107.000000
E 97 430 107.000000
E 97 487 100.000000
E 97 550 101.000000
E 98 405 96.000000
E 98 421 109.000000
E 98 582 102.000000
E 98 623 90.000000
E 99 139 104.000000
E 99 187 109.000000
E 99 610 104.000000
E 99 622 101.000000
E 100 198 101.000000
E 100 248 105.000000
E 100 328 99.000000
E 100 556 93.000000
E 101 394 103.000000
E 101 541 103.000000
E 101 566 103.000000
E 102 139 112.000000
E 102 363 97.000000
E 102 558 104.000000
E 102 586 95.000000
E 103 487 93.000000
E 103 577 94.000000
E 104 235 86.000000
E 104 326 102.000000
E 104 577 97.000000
E 105 201 106.000000
E 105 373 94.000000
E 105 528 93.000000
E 106 185 93.000000
E 106 520 97.000000
E 107 161 106.000000
E 107 542 101.000000
E 107 551 91.000000
E 108 137 104.000000
E 108 368 91.000000
E 108 444 98.000000
E 108 502 102.000000
E 109 274 93.000000
E 109 334 102.000000
E 109 397 94.000000
E 109 423 98.000000
E 109 572 92.000000
E 110 274 93.000000
E 110 435 102.000000
E 111 173 97.000000
E 111 493 104.000000
E 111 542 96.000000
E 112 229 102.000000
E 112 633 96.000000
E 113 145 95.000000
E 113 551 98.000000
E 114 601 99.000000
E 115 147 80.000000
E 115 335 101.000000
E 115 562 102.000000
E 116 393 102.000000
E 116 401 101.000000
E 116 492 96.000000
E 116 591 98.000000
E 117 122 92.000000
E 117 178 92.000000
E 117 275 92.000000
E 117 396 106.000000
E 117 604 106.000000
E 117 606 92.000000
E 118 289 98.000000
E 118 312 99.000000
E 118 347 98.000000
E 119 318 97.000000
E 119 579 95.000000
E 120 412 103.000000
E 120 518 96.000000
E 120 555 105.000000
E 121 155 96.000000
E 121 230 103.000000
E 122 243 100.000000
E 122 510 105.000000
E 123 180 97.000000
E 123 315 104.000000
E 123 531 106.000000
E 123 546 96.000000
E 123 547 99.000000
E 123 566 106.000000
E 123 578 95.000000
E 124 132 104.000000
E 124 156 92.000000
E 124 339 102.000000
E 124 582 97.000000
E 124 596 93.000000
E 126 238 101.000000
E 127 284 109.000000
E 127 302 110.000000
E 127 456 97.000000
E 127 551 96.000000
E 127 618 101.000000
E 128 142 96.000000
E 128 210 96.000000
E 128 442 101.000000
E 129 282 103.000000
E 129 341 112.000000
E 129 425 97.000000
E 130 165 96.000000
E 130 188 112.000000
E 130 202 93.000000
E 130 235 103.000000
E 130 473 96.000000
E 130 592 99.000000
E 131 593 107.000000
E 132 160 106.000000
E 132 192 100.000000
E 132 268 97.000000
E 133 204 98.000000
E 133 229 96.000000
E 133 258 91.000000
E 133 550 100.000000
E 134 429 96.000000
E 134 552 105.000000
E 134 564 95.000000
E 134 588 101.000000
E 135 137 101.000000
E 135 289 96.000000
E 135 458 101.000000
E 135 510 104.000000
E 135 563 91.000000
E 136 226 98.000000
E 136 248 102.000000
E 136 348 102.000000
E 136 374 94.000000
E 137 355 102.000000
E 138 426 96.000000
E 139 196 96.000000
E 139 262 105.000000
E 139 443 96.000000
E 140 331 102.000000
E 140 443 98.000000
E 141 163 96.000000
E 141 250 103.000000
E 141 510 94.000000
E 142 161 104.000000
E 142 258 102.000000
E 142 362 98.000000
E 142 582 103.000000
E 142 596 101.000000
E 142 618 104.000000
E 143 241 101.000000
E 143 278 95.000000
E 143 506 103.000000
E 143 590 90.000000
E 144 196 97.000000
E 144 571 103.000000
E 145 448 102.000000
E 145 476 97.000000
E 146 169 97.000000
E 146 327 99.000000
E 146 332 91.000000
E 146 454 104.000000
E 146 496 95.000000
E 146 530 106.000000
E 147 158 99.000000
E 147 272 98.000000
E 147 324 91.000000
E 147 347 98.000000
E 147 491 92.000000
E 147 568 99.000000
E 147 591 96.000000
E 148 151 97.000000
E 148 295 94.000000
E 148 558 98.000000
E 149 274 98.000000
E 149 441 100.000000
E 149 507 104.000000
E 149 599 94.000000
E 150 232 103.000000
E 150 239 99.000000
E 151 178 94.000000
E 151 304 110.000000
E 152 464 95.000000
E 153 400 93.000000
E 154 238 100.000000
E 154 360 101.000000
E 154 530 101.000000
E 155 344 102.000000
E 156 259 98.000000
E 156 261 104.000000
E 156 337 103.000000
E 156 508 102.000000
E 156 532 97.000000
E 156 565 105.000000
E 156 640 100.000000
E 157 328 95.000000
E 158 221 105.000000
E 158 235 93.000000
E 158 464 93.000000
E 159 211 103.000000
E 159 260 93.000000
E 159 299 107.000000
E 159 312 85.000000
E 159 539 98.000000
E 160 557 93.000000
E 160 600 98.000000
E 161 367 96.000000
E 162 198 102.000000
E 162 278 110.000000
E 162 368 99.000000
E 162 378 102.000000
E 162 630 102.000000
E 163 265 112.000000
E 163 581 97.000000
E 164 251 101.000000
E 166 349 109.000000
E 166 419 100.000000
E 166 471 99.000000
E 166 545 99.000000
E 167 208 101.000000
E 167 316 110.000000
E 167 509 98.000000
E 167 603 96.000000
E 167 621 103.000000
E 168 183 98.000000
E 168 458 98.000000
E 168 520 108.000000
E 169 269 103.000000
E 169 625 95.000000
E 169 633 99.000000
E 170 192 99.000000
E 170 573 89.000000
E 171 212 105.000000
E 171 552 98.000000
E 172 288 97.000000
E 172 300 99.000000
E 172 447 91.000000
E 172 576 101.000000
E 173 486 97.000000
E 173 520 98.000000
E 173 565 101.000000
E 173 599 107.000000
E 174 310 97.000000
E 174 493 96.000000
E 174 530 102.000000
E 174 566 102.000000
E 175 475 100.000000
E 176 355 98.000000
E 176 510 101.000000
E 176 619 101.000000
E 177 368 103.000000
E 178 217 93.000000
E 179 190 104.000000
E 179 458 100.000000
E 180 194 101.000000
E 180 370 108.000000
E 181 186 96.000000
E 181 267 102.000000
E 181 416 77.000000
E 181 474 105.000000
E 181 556 100.000000
E 182 183 97.000000
E 182 215 96.000000
E 182 498 96.000000
E 182 564 101.000000
E 182 636 105.000000
E 183 202 99.000000
E 183 354 93.000000
E 183 552 99.000000
E 184 414 100.000000
E 184 562 98.000000
E 185 322 100.000000
E 185 580 102.000000
E 185 602 107.000000
E 187 234 99.000000
E 187 318 105.000000
E 187 418 99.000000
E 187 531 105.000000
E 187 541 101.000000
E 187 585 98.000000
E 187 612 95.000000
E 187 625 104.000000
E 188 402 106.000000
E 188 474 104.000000
E 189 425 99.000000
E 189 633 111.000000
E 192 349 107.000000
E 195 410 96.000000
E 196 313 105.000000
E 196 534 101.000000
E 197 227 97.000000
E 198 204 99.000000
E 198 343 96.000000
E 198 357 97.000000
E 198 415 94.000000
E 198 485 95.000000
E 199 440 102.000000
E 200 567 104.000000
E 200 630 104.000000
E 200 638 102.000000
E 201 295 104.000000
E 201 379 105.000000
E 201 488 95.000000
E 201 571 97.000000
E 202 483 92.000000
E 202 526 98.000000
E 202 596 91.000000
E 203 263 99.000000
E 203 442 97.000000
E 204 303 106.000000
E 204 475 96.000000
E 205 339 103.000000
E 205 613 106.000000
E 206 334 106.000000
E 207 411 97.000000
E 207 513 97.000000
E 209 330 102.000000
E 209 335 102.000000
E 209 456 107.000000
E 209 487 96.000000
E 209 603 105.000000
E 210 290 94.000000
E 210 374 104.000000
E 210 417 100.000000
E 210 567 101.000000
E 212 520 103.000000
E 212 545 101.000000
E 212 563 101.000000
E 212 607 96.000000
E 213 602 103.000000
E 213 606 106.000000
E 214 301 100.000000
E 214 339 97.000000
E 214 364 102.000000
E 214 559 98.000000
E 215 517 97.000000
E 215 616 108.000000
E 216 244 89.000000
E 216 278 100.000000
E 216 514 105.000000
E 216 640 106.000000
E 217 390 106.000000
E 217 458 102.000000
E 218 331 97.000000
E 219 296 97.000000
E 219 368 102.000000
E 220 509 97.000000
E 220 627 90.000000
E 221 420 109.000000
E 221 537 96.000000
E 221 594 102.000000
E 222 230 105.000000
E 222 273 91.000000
E 222 415 96.000000
E 222 501 103.000000
E 223 378 100.000000
E 223 589 103.000000
E 223 606 103.000000
E 223 619 96.000000
E 223 630 103.000000
E 224 404 101.000000
E 224 598 96.000000
E 225 281 100.000000
E 225 562 103.000000
E 225 619 106.000000
E 226 379 105.000000
E 226 499 99.000000
E 227 311 99.000000
E 227 433 98.000000
E 228 236 93.000000
E 228 249 98.000000
E 228 290 105.000000
E 228 314 101.000000
E 228 597 100.000000
E 229 375 110.000000
E 229 615 97.000000
E 230 341 93.000000
E 230 342 103.000000
E 230 364 99.000000
E 230 368 92.000000
E 230 509 105.000000
E 231 371 106.000000
E 231 389 107.000000
E 231 560 87.000000
E 231 579 99.000000
E 232 573 108.000000
E 233 273 99.000000
E 233 432 93.000000
E 233 447 99.000000
E 233 495 100.000000
E 233 519 102.000000
E 233 574 92.000000
E 234 270 94.000000
E 234 310 97.000000
E 234 357 96.000000
E 235 323 108.000000
E 235 381 107.000000
E 235 414 99.000000
E 235 581 103.000000
E 236 275 98.000000
E 236 368 102.000000
E 236 419 97.000000
E 236 587 93.000000
E 236 605 102.000000
E 236 612 101.000000
E 237 285 104.000000
E 237 347 99.000000
E 237 474 90.000000
E 237 527 98.000000
E 237 532 99.000000
E 237 549 100.000000
E 237 577 105.000000
E 237 581 101.000000
E 237 622 107.000000
E 237 623 100.000000
E 238 318 93.000000
E 239 258 101.000000
E 239 344 99.000000
E 239 503 98.000000
E 240 456 99.000000
E 240 494 98.000000
E 240 629 106.000000
E 241 371 111.000000
E 241 463 108.000000
E 241 489 90.000000
E 241 526 95.000000
E 242 396 101.000000
E 242 475 99.000000
E 243 302 107.000000
E 243 311 104.000000
E 243 473 96.000000
E 244 299 94.000000
E 244 372 106.000000
E 244 506 100.000000
E 246 296 108.000000
E 246 311 91.000000
E 246 363 105.000000
E 246 398 101.000000
E 246 401 98.000000
E 246 598 91.000000
E 247 343 103.000000
E 247 352 101.000000
E 247 381 98.000000
E 247 556 103.000000
E 247 578 99.000000
E 248 418 103.000000
E 248 616 102.000000
E 249 396 103.000000
E 249 612 99.000000
E 250 335 104.000000
E 251 358 103.000000
E 251 380 101.000000
E 251 455 105.000000
E 251 521 107.000000
E 251 637 102.000000
E 252 280 102.000000
E 252 296 106.000000
E 252 374 100.000000
E 253 338 96.000000
E 253 475 92.000000
E 253 617 97.000000
E 254 379 100.000000
E 254 424 95.000000
E 254 478 99.000000
E 254 625 106.000000
E 255 278 96.000000
E 255 325 100.000000
E 256 258 97.000000
E 256 267 100.000000
E 256 279 95.000000
E 257 632 99.000000
E 258 262 96.000000
E 258 282 94.000000
E 258 581 107.000000
E 259 262 93.000000
E 260 311 95.000000
E 260 406 96.000000
E 260 463 104.000000
E 260 604 106.000000
E 261 344 93.000000
E 261 540 100.000000
E 263 292 103.000000
E 263 491 100.000000
E 263 527 95.000000
E 264 441 106.000000
E 264 584 104.000000
E 265 457 98.000000
E 265 515 98.000000
E 266 466 100.000000
E 267 511 100.000000
E 267 622 97.000000
E 269 305 108.000000
E 269 343 100.000000
E 269 638 106.000000
E 270 376 92.000000
E 271 422 91.000000
E 271 582 110.000000
E 272 304 99.000000
E 273 285 99.000000
E 273 387 102.000000
E 273 482 98.000000
E 274 310 102.000000
E 274 329 106.000000
E 274 367 90.000000
E 274 371 96.000000
E 274 437 96.000000
E 274 454 99.000000
E 274 480 88.000000
E 274 482 103.000000
E 276 365 99.000000
E 277 357 101.000000
E 278 381 106.000000
E 278 410 90.000000
E 278 521 94.000000
E 279 402 101.000000
E 280 289 90.000000
E 280 500 100.000000
E 280 536 97.000000
E 280 586 100.000000
E 281 387 94.000000
E 281 486 97.000000
E 281 504 102.000000
E 283 405 97.000000
E 283 499 93.000000
E 283 511 94.000000
E 283 525 87.000000
E 283 632 95.000000
E 284 481 100.000000
E 284 589 101.000000
E 285 367 99.000000
E 285 611 99.000000
E 286 453 107.000000
E 286 508 99.000000
E 286 558 98.000000
E 287 383 103.000000
E 287 456 110.000000
E 287 610 97.000000
E 288 336 104.000000
E 288 430 102.000000
E 288 605 98.000000
E 290 350 92.000000
E 290 522 103.000000
E 290 625 99.000000
E 291 624 98.000000
E 293 406 105.000000
E 294 322 104.000000
E 294 347 105.000000
E 294 355 96.000000
E 294 403 103.000000
E 294 437 91.000000
E 295 318 104.000000
E 295 494 93.000000
E 296 331 98.000000
E 296 633 101.000000
E 297 360 102.000000
E 297 370 102.000000
E 297 378 104.000000
E 298 309 99.000000
E 298 325 103.000000
E 298 548 100.000000
E 299 500 99.000000
E 299 568 97.000000
E 301 447 105.000000
E 301 449 92.000000
E 301 460 94.000000
E 301 617 98.000000
E 302 521 98.000000
E 303 410 97.000000
E 303 568 90.000000
E 304 371 99.000000
E 304 481 102.000000
E 304 535 99.000000
E 304 632 90.000000
E 305 496 96.000000
E 305 626 99.000000
E 306 588 105.000000
E 307 383 97.000000
E 308 374 103.000000
E 308 573 97.000000
E 309 404 101.000000
E 309 451 93.000000
E 309 494 94.000000
E 310 359 96.000000
E 310 456 98.000000
E 311 407 101.000000
E 312 380 96.000000
E 312 475 98.000000
E 312 492 97.000000
E 313 322 97.000000
E 313 490 105.000000
E 313 533 94.000000
E 313 606 99.000000
E 314 605 107.000000
E 314 635 95.000000
E 315 364 103.000000
E 315 558 94.000000
E 315 565 102.000000
E 315 585 100.000000
E 315 597 98.000000
E 316 356 101.000000
E 316 456 96.000000
E 317 596 107.000000
E 318 521 101.000000
E 318 569 97.000000
E 318 640 96.000000
E 320 366 106.000000
E 320 426 101.000000
E 321 489 98.000000
E 321 591 96.000000
E 322 551 104.000000
E 323 330 104.000000
E 323 422 100.000000
E 323 459 91.000000
E 323 543 91.000000
E 323 570 102.000000
E 324 391 103.000000
E 324 416 100.000000
E 325 471 99.000000
E 326 478 105.000000
E 327 442 104.000000
E 327 448 104.000000
E 327 455 113.000000
E 327 612 108.000000
E 328 340 105.000000
E 328 442 97.000000
E 328 533 102.000000
E 329 363 96.000000
E 329 415 103.000000
E 330 537 98.000000
E 331 502 104.000000
E 331 595 105.000000
E 332 610 101.000000
E 332 638 88.000000
E 332 639 101.000000
E 334 578 102.000000
E 335 529 97.000000
E 336 607 106.000000
E 338 598 95.000000
E 339 461 100.000000
E 339 576 106.000000
E 340 433 103.000000
E 340 588 93.000000
E 341 368 106.000000
E 342 351 92.000000
E 342 466 96.000000
E 342 557 108.000000
E 343 495 89.000000
E 344 488 102.000000
E 344 517 95.000000
E 344 525 93.000000
E 344 622 99.000000
E 345 392 104.000000
E 345 412 94.000000
E 345 518 93.000000
E 345 633 103.000000
E 346 508 112.000000
E 346 538 99.000000
E 346 629 94.000000
E 346 639 96.000000
E 348 580 87.000000
E 348 584 106.000000
E 349 363 102.000000
E 349 490 94.000000
E 350 437 103.000000
E 351 434 92.000000
E 351 451 101.000000
E 352 512 96.000000
E 353 541 100.000000
E 353 564 98.000000
E 354 613 94.000000
E 355 408 99.000000
E 355 638 100.000000
E 356 444 95.000000
E 356 467 105.000000
E 356 495 100.000000
E 356 592 101.000000
E 357 495 101.000000
E 357 605 104.000000
E 358 369 102.000000
E 358 452 99.000000
E 358 514 99.000000
E 360 425 106.000000
E 360 495 100.000000
E 360 505 92.000000
E 360 517 103.000000
E 361 362 102.000000
E 361 377 101.000000
E 361 585 105.000000
E 363 558 96.000000
E 364 480 98.000000
E 364 496 100.000000
E 365 419 101.000000
E 365 530 97.000000
E 366 497 102.000000
E 366 585 101.000000
E 367 378 96.000000
E 367 444 104.000000
E 367 544 103.000000
E 367 604 97.000000
E 367 619 86.000000
E 367 627 103.000000
E 368 430 100.000000
E 369 478 91.000000
E 369 627 97.000000
E 369 640 90.000000
E 370 526 92.000000
E 370 578 101.000000
E 371 383 102.000000
E 372 406 90.000000
E 372 511 94.000000
E 372 638 94.000000
E 373 562 103.000000
E 374 394 94.000000
E 374 442 89.000000
E 375 505 98.000000
E 377 466 98.000000
E 377 583 94.000000
E 378 420 94.000000
E 378 428 109.000000
E 378 515 91.000000
E 378 518 96.000000
E 378 564 103.000000
E 378 614 90.000000
E 380 413 98.000000
E 381 482 101.000000
E 382 384 93.000000
E 382 623 107.000000
E 383 404 98.000000
E 383 406 87.000000
E 383 565 97.000000
E 383 598 100.000000
E 383 622 92.000000
E 384 626 106.000000
E 385 516 103.000000
E 385 564 107.000000
E 386 573 97.000000
E 387 494 95.000000
E 387 497 100.000000
E 387 510 102.000000
E 387 578 94.000000
E 388 447 105.000000
E 388 583 105.000000
E 389 463 99.000000
E 389 552 94.000000
E 390 581 100.000000
E 392 547 100.000000
E 392 628 96.000000
E 393 457 97.000000
E 393 465 101.000000
E 394 457 91.000000
E 394 547 98.000000
E 395 433 94.000000
E 395 475 109.000000
E 396 423 100.000000
E 396 485 102.000000
E 397 402 96.000000
E 398 542 87.000000
E 399 422 93.000000
E 399 432 105.000000
E 400 442 96.000000
E 400 453 109.000000
E 400 631 100.000000
E 401 479 98.000000
E 401 579 105.000000
E 401 601 99.000000
E 402 445 103.000000
E 402 451 99.000000
E 402 517 104.000000
E 402 570 100.000000
E 402 600 100.000000
E 403 474 95.000000
E 404 471 105.000000
E 405 523 95.000000
E 405 602 100.000000
E 406 485 100.000000
E 407 562 98.000000
E 408 597 101.000000
E 410 457 98.000000
E 412 526 101.000000
E 413 559 102.000000
E 414 487 99.000000
E 415 427 109.000000
E 415 513 95.000000
E 415 603 106.000000
E 416 616 103.000000
E 418 467 91.000000
E 418 480 97.000000
E 418 487 104.000000
E 419 580 95.000000
E 419 602 107.000000
E 420 628 102.000000
E 422 638 100.000000
E 425 607 98.000000
E 428 430 106.000000
E 428 535 109.000000
E 430 481 100.000000
E 430 517 97.000000
E 430 528 92.000000
E 430 604 96.000000
E 431 532 100.000000
E 433 584 99.000000
E 434 479 103.000000
E 436 619 100.000000
E 438 462 112.000000
E 438 614 104.000000
E 439 507 105.000000
E 439 517 100.000000
E 439 519 99.000000
E 440 559 95.000000
E 440 573 107.000000
E 442 552 108.000000
E 442 603 107.000000
E 443 464 111.000000
E 445 465 107.000000
E 446 632 99.000000
E 446 638 93.000000
E 448 569 95.000000
E 449 549 109.000000
E 450 608 96.000000
E 450 617 102.000000
E 450 629 95.000000
E 451 589 101.000000
E 452 460 99.000000
E 452 461 105.000000
E 452 542 91.000000
E 453 515 109.000000
E 456 533 93.000000
E 457 496 97.000000
E 457 554 99.000000
E 457 610 105.000000
E 458 570 89.000000
E 459 468 102.000000
E 460 566 91.000000
E 460 614 109.000000
E 462 512 104.000000
E 462 519 98.000000
E 462 594 103.000000
E 462 627 107.000000
E 463 601 107.000000
E 463 612 100.000000
E 465 473 104.000000
E 465 601 99.000000
E 469 553 98.000000
E 470 489 101.000000
E 470 504 107.000000
E 470 572 93.000000
E 470 588 103.000000
E 470 628 101.000000
E 471 472 104.000000
E 471 618 105.000000
E 472 519 105.000000
E 474 543 94.000000
E 475 596 100.000000
E 477 501 107.000000
E 477 626 98.000000
E 478 552 91.000000
E 479 622 98.000000
E 480 613 102.000000
E 482 521 97.000000
E 483 585 91.000000
E 484 600 102.000000
E 486 503 98.000000
E 486 579 104.000000
E 487 505 98.000000
E 487 597 105.000000
E 490 630 99.000000
E 491 607 92.000000
E 494 523 92.000000
E 494 614 90.000000
E 495 550 97.000000
E 495 557 104.000000
E 498 553 98.000000
E 499 532 93.000000
E 499 591 99.000000
E 500 575 94.000000
E 501 510 100.000000
E 506 560 94.000000
E 507 570 107.000000
E 507 581 107.000000
E 507 597 96.000000
E 508 575 101.000000
E 508 606 106.000000
E 512 541 104.000000
E 512 626 96.000000
E 515 525 103.000000
E 517 630 97.000000
E 518 590 96.000000
E 520 573 89.000000
E 527 584 98.000000
E 528 570 102.000000
E 528 600 108.000000
E 529 544 99.000000
E 530 536 100.000000
E 532 562 94.000000
E 534 631 104.000000
E 538 640 103.000000
E 542 559 95.000000
E 546 552 93.000000
E 547 593 94.000000
E 548 590 101.000000
E 550 576 101.000000
E 554 606 104.000000
E 556 574 102.000000
E 560 564 88.000000
E 560 592 106.000000
E 562 584 103.000000
E 565 584 96.000000
E 567 636 107.000000
E 572 637 96.000000
E 575 596 104.000000
E 581 628 107.000000
E 582 594 110.000000
E 588 621 105.000000
E 591 635 101.000000
E 592 616 101.000000
E 597 608 100.000000
E 597 615 109.000000
E 606 610 100.000000
E 609 621 106.000000
E 610 615 103.000000
E 619 631 103.000000
E 623 627 100.000000
E 626 630 94.000000
E 627 634 94.000000
END

SECTION Terminals
Terminals 50
TP 1 512.000000
TP 2 472.000000
TP 3 676.000000
TP 4 440.000000
TP 5 976.000000
TP 6 712.000000
TP 7 524.000000
TP 8 624.000000
TP 9 804.000000
TP 10 476.000000
TP 11 340.000000
TP 12 192.000000
TP 13 236.000000
TP 14 416.000000
TP 15 1204.000000
TP 16 412.000000
TP 17 28.000000
TP 18 8.000000
TP 19 732.000000
TP 20 976.000000
TP 21 844.000000
TP 22 368.000000
TP 23 536.000000
TP 24 608.000000
TP 25 192.000000
TP 26 256.000000
TP 27 1220.000000
TP 28 548.000000
TP 29 1136.000000
TP 30 488.000000
TP 31 348.000000
TP 32 508.000000
TP 33 1036.000000
TP 34 564.000000
TP 35 604.000000
TP 36 424.000000
TP 37 172.000000
TP 38 1068.000000
TP 39 440.000000
TP 40 948.000000
TP 41 516.000000
TP 42 928.000000
TP 43 1176.000000
TP 44 1040.000000
TP 45 604.000000
TP 46 20.000000
TP 47 800.000000
TP 48 1200.000000
TP 49 420.000000
TP 50 192.000000
END

EOF
